p cnf 30 85
1 2 3  0
-2 -3  0
-1 -3  0
-1 -2  0
4 5 6  0
-5 -6  0
-4 -6  0
-4 -5  0
7 8 9  0
-8 -9  0
-7 -9  0
-7 -8  0
10 11 12  0
-11 -12  0
-10 -12  0
-10 -11  0
13 14 15  0
-14 -15  0
-13 -15  0
-13 -14  0
16 17 18  0
-17 -18  0
-16 -18  0
-16 -17  0
19 20 21  0
-20 -21  0
-19 -21  0
-19 -20  0
22 23 24  0
-23 -24  0
-22 -24  0
-22 -23  0
25 26 27  0
-26 -27  0
-25 -27  0
-25 -26  0
28 29 30  0
-29 -30  0
-28 -30  0
-28 -29  0
-4 -1  0
-5 -2  0
-6 -3  0
-13 -1  0
-14 -2  0
-15 -3  0
-22 -1  0
-23 -2  0
-24 -3  0
-7 -4  0
-8 -5  0
-9 -6  0
-16 -4  0
-17 -5  0
-18 -6  0
-10 -7  0
-11 -8  0
-12 -9  0
-28 -7  0
-29 -8  0
-30 -9  0
-13 -10  0
-14 -11  0
-15 -12  0
-19 -10  0
-20 -11  0
-21 -12  0
-25 -13  0
-26 -14  0
-27 -15  0
-19 -16  0
-20 -17  0
-21 -18  0
-25 -16  0
-26 -17  0
-27 -18  0
-22 -19  0
-23 -20  0
-24 -21  0
-28 -22  0
-29 -23  0
-30 -24  0
-28 -25  0
-29 -26  0
-30 -27  0
